p cnf 10 33
3 4 8 9 10 -7 -1 0
3 6 8 9 -2 -5 -1 0
4 7 9 -10 -8 -5 -2 0
3 4 7 -10 -6 -5 -1 0
5 6 8 10 -9 -3 -1 0
2 6 7 8 -10 -5 -1 0
1 3 6 9 10 -8 -5 0
3 5 8 9 -7 -4 -2 0
1 7 9 -8 -5 -3 -2 0
5 6 -9 -8 -4 -3 -1 0
1 2 3 4 10 -9 -8 0
3 6 -10 -8 -5 -4 -2 0
3 4 5 6 -9 -8 -2 0
1 -4 0
2 3 5 0
-8 9 5 0
-7 -10 0
-8 2 -4 0
2 5 -9 0
3 5 7 0
-4 5 -10 0
9 -4 -10 0
9 5 -10 0
5 8 -7 -3 -2 0
-7 1 -9 0
-8 -7 6 0
8 1 6 -9 0
8 -4 -3 7 0
3 10 -9 -5 -2 0
3 4 7 -1 -2 0
2 3 -1 6 0
2 3 -10 7 0
9 -6 2 0
